Name:		mgval_0.40_3A
Optimal value:	86
#Vehicles:	2
Capacity:	80
Depot Node:	1
#Nodes:		24
#Edges:		15
#Arcs:		33
#Required N:	13
#Required E:	9
#Required A:	19

ReN.	DEMAND	S. COST
N2	3	3
N4	4	4
N5	5	5
N6	3	3
N10	3	3
N12	4	4
N14	8	8
N15	2	2
N16	4	4
N18	6	6
N19	11	11
N22	4	4
N24	5	5

ReE.	FROM N.	TO N.	T. COST	DEMAND	S. COST
E7	12	13	1	2	2
E8	5	11	4	4	4
E9	15	21	1	4	4
E10	21	24	1	3	3
E11	17	18	1	3	3
E12	4	5	2	6	6
E13	3	9	1	1	1
E14	10	11	3	5	5
E15	13	17	3	5	5

EDGE	FROM N.	TO N.	T. COST
NrE1	5	6	3
NrE2	22	23	3
NrE3	19	22	3
NrE4	12	16	1
NrE5	6	12	1
NrE6	19	20	1

ReA.	FROM N.	TO N.	T. COST	DEMAND	S. COST
A15	10	20	2	2	2
A16	4	2	1	2	2
A17	11	15	1	2	2
A18	9	10	2	1	1
A19	15	16	1	1	1
A20	20	21	2	2	2
A21	9	19	1	1	1
A22	17	16	4	2	2
A23	5	10	2	2	2
A24	20	10	2	2	2
A25	1	3	1	1	1
A26	23	20	1	4	4
A27	8	14	3	3	3
A28	3	1	1	2	2
A29	2	1	2	2	2
A30	7	6	3	3	3
A31	8	7	1	6	6
A32	21	20	2	2	2
A33	6	7	3	2	2

ARC	FROM N.	TO N.	T. COST
NrA1	14	8	3
NrA2	19	9	1
NrA3	12	11	1
NrA4	14	13	2
NrA5	16	15	1
NrA6	1	2	2
NrA7	15	11	1
NrA8	10	9	2
NrA9	10	5	2
NrA10	4	3	2
NrA11	24	23	1
NrA12	18	14	3
NrA13	2	4	1
NrA14	16	17	4
